79,89
73,83
34,44
93,103
60,70
74,84
68,78
18,28
24,34
52,62
20,30
77,87
84,94
74,84
28,38
21,31
77,87
79,89
97,107
88,98
80,90
13,23
21,31
51,61
58,68
31,41
70,80
11,21
70,80
77,87
92,102
54,64
19,29
45,55
27,37
73,83
57,67
16,26
98,108
19,29
39,49
96,106
11,21
31,41
30,40
15,25
78,88
33,43
90,100
35,45
15,25
96,106
29,39
44,54
82,92
95,105
90,100
67,77
39,49
63,73
17,27
60,70
32,42
44,54
30,40
56,66
93,103
34,44
83,93
80,90
40,50
80,90
50,60
99,109
29,39

298
1204
314
45
706
213
312
348
271
70
